% instance size is  20
nitems= 20 ;
capacity= 4623 ;
gain= [942, 1120, 516, 671, 678, 970, 578, 972, 830, 1151, 1143, 162, 784, 1077, 380, 977, 537, 858, 1005, 103] ;
weight= [586, 915, 156, 272, 278, 629, 198, 632, 435, 991, 971, 15, 383, 822, 83, 640, 170, 470, 687, 6] ;
